NAME : portcgen-15-80
COMMENT : portcgen N=15, seed=80
TYPE : TSP
DIMENSION : 15
EDGE_WEIGHT_TYPE : EUC_2D
NODE_COORD_SECTION
1 60 70
2 63 59
3 55 62
4 61 46
5 55 67
6 75 89
7 71 94
8 36 76
9 36 34
10 59 95
11 73 56
12 89 67
13 55 83
14 82 110
15 98 103
